; benchmark generated from python API
(set-info :status unknown)
(declare-fun S_4 () Real)
(declare-fun S_2 () Real)
(declare-fun C () Real)
(declare-fun S_3 () Real)
(declare-fun S_5 () Real)
(declare-fun A_0 () Real)
(declare-fun S_1 () Real)
(declare-fun L_0 () Real)
(declare-fun A_3 () Real)
(declare-fun L_2 () Real)
(declare-fun S_0 () Real)
(declare-fun L0 () Real)
(declare-fun A_2 () Real)
(declare-fun A_1 () Real)
(declare-fun L_1 () Real)
(declare-fun A_4 () Real)
(declare-fun A_5 () Real)
(assert
 (let (($x42 (>= L0 0.0)))
 (let (($x935 (>= C 5.0)))
 (let (($x11181 (<= 0.0 (+ (* (- 1.0) L_0) C A_1 L_2 (* (- 1.0) A_2)))))
 (let (($x12635 (not $x11181)))
 (let (($x11611 (<= (+ (* 3.0 C) S_0 (* (- 1.0) S_4)) 0.0)))
 (let (($x18212 (or (not (<= (+ (* 2.0 C) L_2 (* (- 1.0) A_2) S_0) 0.0)) $x11611 $x12635)))
 (let (($x556 (<= (+ (* 2.0 C) (* (- 1.0) S_3) S_0) 0.0)))
 (let ((?x603 (* (- 1.0) A_2)))
 (let ((?x889 (* 2.0 C)))
 (let ((?x268 (+ ?x889 L_2 ?x603 S_0)))
 (let (($x464 (<= 0.0 ?x268)))
 (let (($x357 (<= 0.0 (+ (* (- 1.0) A_1) (* (- 1.0) C) (* (- 1.0) L_2) A_2 L_0))))
 (let (($x13024 (<= (+ (* (- 1.0) L_0) ?x889 A_2 (* (- 1.0) S_5)) 0.0)))
 (let (($x11917 (<= (+ (* 4.0 C) (* (- 1.0) S_5) S_0) 0.0)))
 (let (($x11605 (<= (+ (* (- 1.0) L_0) (* 3.0 C) A_1 (* (- 1.0) S_5)) 0.0)))
 (let (($x12357 (<= (+ (* (- 1.0) L_0) ?x889 A_1 (* (- 1.0) S_4)) 0.0)))
 (let (($x12996 (<= (+ (* (- 1.0) L_0) C A_2 (* (- 1.0) S_4)) 0.0)))
 (let (($x411 (<= 0.0 (+ L_1 (* (- 1.0) A_1) C S_0))))
 (let (($x281 (not $x411)))
 (let (($x12993 (<= 0.0 (+ C ?x603 L_2 S_1))))
 (let (($x12735 (<= 0.0 (+ (* (- 2.0) C) (* (- 1.0) A_1) S_5 L_1))))
 (let (($x7573 (<= (+ (* (- 1.0) L_0) A_2 (* (- 1.0) S_3)) 0.0)))
 (let (($x462 (not $x464)))
 (let (($x2595 (not (= L_1 L_2))))
 (let (($x59 (= L_1 L_0)))
 (let (($x1563 (= L_2 L_0)))
 (let (($x677 (not (= L_0 L_1))))
 (let (($x18158 (or $x677 $x1563 (= (+ (* (- 1.0) L_0) A_1 C L_2 ?x603) 0.0) $x12635)))
 (let (($x69 (= L_2 L_1)))
 (let (($x12160 (not $x357)))
 (let (($x18163 (or $x556 (<= (+ (* (- 1.0) L_0) C A_1 (* (- 1.0) S_3)) 0.0) $x12160)))
 (let (($x525 (not (<= 0.0 (+ L_0 (* (- 1.0) A_1) C S_0)))))
 (let (($x143 (>= S_5 S_4)))
 (let (($x41 (>= L_0 L0)))
 (let (($x131 (>= S_1 S_0)))
 (let (($x134 (>= S_2 S_1)))
 (let (($x137 (>= S_3 S_2)))
 (let (($x140 (>= S_4 S_3)))
 (let (($x145 (>= A_1 A_0)))
 (let (($x146 (>= A_2 A_1)))
 (let (($x148 (>= A_4 A_3)))
 (let (($x149 (>= A_5 A_4)))
 (and (<= (+ A_2 (* (- 1.0) L_2)) S_5) $x149 $x148 $x146 $x145 $x140 $x137 $x134 $x131 $x41 $x143 (or $x59 $x69 (= (+ (* (- 1.0) L_1) A_1 C L_2 ?x603) 0.0)) (or $x69 (not (<= 0.0 (+ L_1 (* (- 1.0) L_2))))) (or $x525 (<= (+ (* (- 1.0) L_0) A_1 (* (- 1.0) S_2)) 0.0)) (or $x411 (<= (+ C (* (- 1.0) S_2) S_0) 0.0)) (or $x525 $x12160 $x12357) (or $x411 $x11611 (not (<= ?x268 (- 5.0)))) (or $x69 $x411 $x11917) (or $x525 $x11605 $x12160) $x18163 (<= (+ (* (- 2.0) C) S_1 (* (- 1.0) S_0)) 0.0) (or $x69 (not (<= 0.0 (+ (* (- 1.0) C) L_2 ?x603 S_5)))) (<= (+ L_0 (* (- 3.0) C) S_3 (* (- 1.0) A_0)) 0.0) (<= (+ (* (- 4.0) C) S_3 (* (- 1.0) S_0)) 0.0) (<= (+ (* (- 5.0) C) (* (- 1.0) S_0) S_4) 0.0) $x18158 (or $x59 $x2595 (<= 0.0 (+ C A_1 ?x603))) (or $x59 (not (<= 0.0 (+ (* (- 1.0) L_1) L_0)))) (<= (+ (* (- 5.0) C) L_0 S_5 (* (- 1.0) A_0)) 0.0) (<= (+ (* (- 5.0) C) S_5 (* (- 1.0) S_1)) 0.0) (<= (+ (* (- 6.0) C) S_5 (* (- 1.0) S_0)) 0.0) (<= (+ (* (- 3.0) C) (* (- 1.0) S_1) S_3) 0.0) (or $x59 $x556) (or $x281 $x7573 $x12635) (<= (+ L_0 (* (- 1.0) A_1) S_1) 0.0) (<= (+ L_0 ?x603 S_2) 0.0) (or $x7573 (<= (+ C S_1 (* (- 1.0) S_3)) 0.0)) (or $x411 $x462 $x7573) (or $x411 $x462 $x12996) (or $x59 (not $x12735)) (<= (+ (* (- 3.0) C) S_2 (* (- 1.0) S_0)) 0.0) (or $x11611 $x12735) (<= (+ (* (- 2.0) C) L_0 S_2 (* (- 1.0) A_0)) 0.0) (<= (+ (* (- 4.0) C) L_0 S_4 (* (- 1.0) A_0)) 0.0) (or $x59 $x11917) (or (<= (+ ?x889 S_1 (* (- 1.0) S_4)) 0.0) $x12993) (or (<= (+ (* 3.0 C) (* (- 1.0) S_5) S_1) 0.0) $x12993) (<= (+ (* (- 2.0) C) S_2 (* (- 1.0) S_1)) 0.0) (or (not $x12993) $x12996) (or $x281 $x12635 $x12996) (<= (+ L_0 (* (- 1.0) C) ?x603 S_3) 0.0) (<= (+ L_0 (* (- 1.0) C) (* (- 1.0) A_1) S_2) 0.0) (or $x11181 $x11611 $x12357) (or (not $x12993) $x13024) (<= (+ (* (- 4.0) C) (* (- 1.0) S_1) S_4) 0.0) (or $x11605 $x11917 $x13024) (<= (+ L_0 (* (- 2.0) C) ?x603 S_4) 0.0) (<= (+ L_0 (* (- 3.0) C) (* (- 1.0) A_1) S_4) 0.0) (<= (+ (* (- 4.0) C) S_5 (* (- 1.0) S_2)) 0.0) (<= (+ L_0 (* (- 3.0) C) ?x603 S_5) 0.0) (<= (+ L_0 (* (- 4.0) C) (* (- 1.0) A_1) S_5) 0.0) (<= (+ L_0 (* (- 2.0) C) (* (- 1.0) A_1) S_3) 0.0) (or $x357 $x464 $x556) $x18212 $x935 $x42 (<= (+ L_0 S_0 (* (- 1.0) A_0)) 0.0) (<= (+ C S_2 (* (- 1.0) S_4)) 0.0) (<= (+ ?x889 (* (- 1.0) S_5) S_2) 0.0) (not (>= (+ L_2 (* (- 1.0) A_3) S_5) 0.0)) (<= (+ (* (- 2.0) C) (* (- 1.0) S_3) S_4) 0.0) (<= (+ C (* (- 1.0) S_5) S_3) 0.0) (<= (+ (* (- 2.0) C) (* (- 1.0) S_2) S_3) 0.0) (<= (+ (* (- 1.0) C) L_0 S_1 (* (- 1.0) A_0)) 0.0) (<= (+ (* (- 2.0) C) S_5 (* (- 1.0) S_4)) 0.0) (<= (+ (* (- 3.0) C) S_5 (* (- 1.0) S_3)) 0.0) (<= (+ (* (- 3.0) C) (* (- 1.0) S_2) S_4) 0.0)))))))))))))))))))))))))))))))))))))))))))))
(check-sat)
